--- Job gams_0064_002_32_04_0.67_05_0.50_0.90_10_problem.txt Start 02/24/21 20:05:18 35.2.0 r33388c4 WEX-WEI x86 64bit/MS Windows
--- Applying:
    C:\Users\MariaSosnovskaya\GAMS35\gmsprmNT.txt
--- GAMS Parameters defined
    Input C:\Users\MariaSosnovskaya\Downloads\WfmGams3\problems\gams_0064_002_32_04_0.67_05_0.50_0.90_10_problem.txt
    ScrDir C:\Users\MariaSosnovskaya\Downloads\WfmGams3\225i\
    SysDir C:\Users\MariaSosnovskaya\GAMS35\
Licensee: GAMS Evaluation License                        S210124/0001AB-GEN
          Sobolev Institute of Mathematics, Discrete Optimization LaDCE1098
          C:\Users\MariaSosnovskaya\GAMS35\gamslice.txt
          Evaluation license: Not for commercial or production use
GAMS 35.2.0   Copyright (C) 1987-2021 GAMS Development. All rights reserved
--- Starting compilation
--- gams_0064_002_32_04_0.67_05_0.50_0.90_10_problem.txt(22) 3 Mb
--- . gams_0064_002_32_04_0.67_05_0.50_0.90_10.inc(6600) 3 Mb
--- gams_0064_002_32_04_0.67_05_0.50_0.90_10_problem.txt(98) 3 Mb
--- Starting execution: elapsed 0:00:00.035
--- gams_0064_002_32_04_0.67_05_0.50_0.90_10_problem.txt(6621) 4 Mb
--- Generating MIP model mymodel
--- gams_0064_002_32_04_0.67_05_0.50_0.90_10_problem.txt(6677) 9 Mb
---   16,769 rows  12,289 columns  56,129 non-zeroes
---   12,288 discrete-columns
--- Executing CPLEX (Solvelink=2): elapsed 0:00:00.172

IBM ILOG CPLEX   35.2.0 r33388c4 Released Jun 02, 2021 WEI x86 64bit/MS Window

--- GAMS/Cplex licensed for continuous and discrete problems.
--- Space for names approximately 0.61 Mb
--- Use option 'names no' to turn use of names off
--- GMO memory 6.31 Mb (peak 6.40 Mb)
--- Dictionary memory 0.00 Mb
--- Cplex 20.1.0.1 link memory 0.43 Mb (peak 1.98 Mb)
--- Starting Cplex

Version identifier: 20.1.0.1 | 2021-04-07 | 3a818710c
CPXPARAM_Advance                                 0
CPXPARAM_Threads                                 1
CPXPARAM_MIP_Display                             4
CPXPARAM_TimeLimit                               3600
CPXPARAM_MIP_Tolerances_AbsMIPGap                0
Generic callback                                 0x50
Tried aggregator 2 times.
MIP Presolve eliminated 8321 rows and 1090 columns.
Aggregator did 192 substitutions.
Reduced MIP has 8256 rows, 11008 columns, and 37088 nonzeros.
Reduced MIP has 11008 binaries, 0 generals, 0 SOSs, and 0 indicators.
Presolve time = 0.06 sec. (41.77 ticks)
Probing fixed 960 vars, tightened 0 bounds.
Probing changed sense of 64 constraints.
Probing time = 0.08 sec. (29.34 ticks)
Tried aggregator 16 times.
MIP Presolve eliminated 512 rows and 1021 columns.
Aggregator did 512 substitutions.
Reduced MIP has 7232 rows, 9475 columns, and 32032 nonzeros.
Reduced MIP has 9475 binaries, 0 generals, 0 SOSs, and 0 indicators.
Presolve time = 0.64 sec. (309.42 ticks)
Probing time = 0.02 sec. (4.32 ticks)
Tried aggregator 1 time.
Detecting symmetries...
Reduced MIP has 7232 rows, 9475 columns, and 32032 nonzeros.
Reduced MIP has 9475 binaries, 0 generals, 0 SOSs, and 0 indicators.
Presolve time = 0.05 sec. (28.65 ticks)
Probing time = 0.02 sec. (4.32 ticks)
Clique table members: 23589.
MIP emphasis: balance optimality and feasibility.
MIP search method: dynamic search.
Parallel mode: none, using 1 thread.
Tried aggregator 1 time.
No LP presolve or aggregator reductions.
Presolve time = 0.00 sec. (4.18 ticks)
Initializing dual steep norms . . .

Iteration log . . .
Iteration:     1   Dual objective     =          8504.000000
Perturbation started.
Iteration:   101   Dual objective     =          8504.000000
Iteration:   468   Dual objective     =          8503.999844
Iteration:   827   Dual objective     =          8503.999726
Iteration:  1192   Dual objective     =          8503.999622
Iteration:  1552   Dual objective     =          8503.999504
Iteration:  1921   Dual objective     =          8503.999378
Iteration:  2264   Dual objective     =          8503.999299
Iteration:  2624   Dual objective     =          8503.999248
Iteration:  2959   Dual objective     =          8503.999218
Iteration:  3274   Dual objective     =          8503.999196
Iteration:  3567   Dual objective     =          8503.999174
Iteration:  3853   Dual objective     =          8503.999156
Iteration:  4130   Dual objective     =          8503.999140
Iteration:  4415   Dual objective     =          8503.999126
Iteration:  4640   Dual objective     =          8503.999116
Iteration:  4882   Dual objective     =          8503.999105
Iteration:  5075   Dual objective     =          8503.999096
Iteration:  5274   Dual objective     =          8503.999088
Iteration:  5418   Dual objective     =          8503.999083
Iteration:  5563   Dual objective     =          8503.999078
Iteration:  5698   Dual objective     =          8503.999075
Iteration:  5849   Dual objective     =          8503.999069
Iteration:  5983   Dual objective     =          8503.999065
Iteration:  6105   Dual objective     =          8503.999063
Iteration:  6229   Dual objective     =          8503.999059
Iteration:  6348   Dual objective     =          8503.999057
Iteration:  6473   Dual objective     =          8503.999055
Iteration:  6591   Dual objective     =          8503.999053
Iteration:  6713   Dual objective     =          8503.999052
Iteration:  6833   Dual objective     =          8503.999051
Iteration:  6949   Dual objective     =          8503.999050
Iteration:  7068   Dual objective     =          8503.999049
Iteration:  7185   Dual objective     =          8503.999049
Removing perturbation.
Root relaxation solution time = 0.90 sec. (567.62 ticks)

        Nodes                                         Cuts/
   Node  Left     Objective  IInf  Best Integer    Best Bound    ItCnt     Gap

      0     0     8504.0000  1530                   8504.0000     7272         
      0     0     8504.0000   384                    Cuts: 10     7564         
      0     0     8504.0000   605                    Cuts: 83     8392         
*     0+    0                         8504.0000     8504.0000             0.00%
Found incumbent of value 8504.000000 after 5.10 sec. (3121.90 ticks)
      0     0        cutoff           8504.0000     8504.0000     8392    0.00%
Elapsed time = 5.10 sec. (3121.90 ticks, tree = 0.01 MB, solutions = 1)

Zero-half cuts applied:  25
Lift and project cuts applied:  1
Gomory fractional cuts applied:  10

Root node processing (before b&c):
  Real time             =    5.10 sec. (3122.44 ticks)
Sequential b&c:
  Real time             =    0.00 sec. (0.00 ticks)
                          ------------
Total (root+branch&cut) =    5.10 sec. (3122.44 ticks)

--- MIP status (101): integer optimal solution.
--- Cplex Time: 5.12sec (det. 3122.48 ticks)

--- Fixing integer variables and solving final LP...

Version identifier: 20.1.0.1 | 2021-04-07 | 3a818710c
CPXPARAM_Advance                                 2
CPXPARAM_Threads                                 1
CPXPARAM_MIP_Display                             4
CPXPARAM_TimeLimit                               3600
CPXPARAM_MIP_Tolerances_AbsMIPGap                0
Tried aggregator 1 time.
LP Presolve eliminated 16769 rows and 12290 columns.
All rows and columns eliminated.
Presolve time = 0.02 sec. (7.08 ticks)

--- Fixed MIP status (1): optimal.
--- Cplex Time: 0.02sec (det. 12.42 ticks)


Proven optimal solution
MIP Solution:         8504.000000    (8392 iterations, 0 nodes)
Final Solve:          8504.000000    (0 iterations)

Best possible:        8504.000000
Absolute gap:            0.000000
Relative gap:            0.000000

--- Reading solution for model mymodel
--- gams_0064_002_32_04_0.67_05_0.50_0.90_10_problem.txt(6677) 9 Mb  5 secs
--- Executing after solve: elapsed 0:00:05.583
--- gams_0064_002_32_04_0.67_05_0.50_0.90_10_problem.txt(6678) 9 Mb--- gams_0064_002_32_04_0.67_05_0.50_0.90_10_problem.txt(6698) 9 Mb
--- Putfile results C:\Users\MariaSosnovskaya\Downloads\WfmGams3\problems\gams_0064_002_32_04_0.67_05_0.50_0.90_10_results.txt
*** Status: Normal completion
--- Job gams_0064_002_32_04_0.67_05_0.50_0.90_10_problem.txt Stop 02/24/21 20:05:24 elapsed 0:00:05.604
